presolving:
(round 1, fast)       0 del vars, 0 del conss, 0 add conss, 2250 chg bounds, 0 chg sides, 0 chg coeffs, 0 upgd conss, 0 impls, 10304 clqs
   (0.1s) running MILP presolver
   (0.1s) MILP presolver (2 rounds): 0 aggregations, 0 fixings, 0 bound changes
(round 2, exhaustive) 0 del vars, 0 del conss, 0 add conss, 2250 chg bounds, 0 chg sides, 0 chg coeffs, 10304 upgd conss, 0 impls, 10304 clqs
   (0.2s) probing: 51/421 (12.1%) - 0 fixings, 0 aggregations, 0 implications, 0 bound changes
   (0.2s) probing aborted: 50/50 successive totally useless probings
   (0.2s) symmetry computation started: requiring (bin +, int -, cont +), (fixed: bin -, int +, cont -)
   (0.2s) no symmetry present
presolving (3 rounds: 3 fast, 2 medium, 2 exhaustive):
 2250 deleted vars, 95 deleted constraints, 0 added constraints, 2250 tightened bounds, 0 added holes, 0 changed sides, 0 changed coefficients
 0 implications, 10304 cliques
presolved problem has 421 variables (421 bin, 0 int, 0 impl, 0 cont) and 10305 constraints
  10304 constraints of type <setppc>
      1 constraints of type <linear>
Presolving Time: 0.20

 time | node  | left  |LP iter|LP it/n|mem/heur|mdpt |vars |cons |rows |cuts |sepa|confs|strbr|  dualbound   | primalbound  |  gap   | compl. 
t 0.2s|     1 |     0 |     0 |     - | trivial|   0 | 421 |  10k|   0 |   0 |  0 |   0 |   0 | 8.528637e+04 | 8.490700e+04 |   0.45%| unknown
p 0.2s|     1 |     0 |     0 |     - |  clique|   0 | 421 |  10k|  10k|   0 |  0 |   0 |   0 | 8.528637e+04 | 8.492109e+04 |   0.43%| unknown
p 0.3s|     1 |     0 |     1 |     - | vbounds|   0 | 421 |  10k|  10k|   0 |  0 |   0 |   0 | 8.528637e+04 | 8.492113e+04 |   0.43%| unknown
  0.3s|     1 |     0 |   509 |     - |    49M |   0 | 421 |  10k|  10k|   0 |  0 |   0 |   0 | 8.495655e+04 | 8.492113e+04 |   0.04%| unknown
r 0.3s|     1 |     0 |   509 |     - |randroun|   0 | 421 |  10k|  10k|   0 |  0 |   0 |   0 | 8.495655e+04 | 8.492571e+04 |   0.04%| unknown
i 0.3s|     1 |     0 |   509 |     - |  oneopt|   0 | 421 |  10k|  10k|   0 |  0 |   0 |   0 | 8.495655e+04 | 8.493368e+04 |   0.03%| unknown
  0.5s|     1 |     0 |   588 |     - |    51M |   0 | 421 |  10k|  10k|   8 |  1 |   0 |   0 | 8.495510e+04 | 8.493368e+04 |   0.03%| unknown
  0.7s|     1 |     0 |   619 |     - |    52M |   0 | 421 |  10k|  10k|  14 |  2 |   0 |   0 | 8.495491e+04 | 8.493368e+04 |   0.02%| unknown
  0.8s|     1 |     0 |   665 |     - |    53M |   0 | 421 |  10k|  10k|  18 |  3 |   0 |   0 | 8.495434e+04 | 8.493368e+04 |   0.02%| unknown
  1.0s|     1 |     0 |   683 |     - |    54M |   0 | 421 |  10k|  10k|  19 |  4 |   0 |   0 | 8.495422e+04 | 8.493368e+04 |   0.02%| unknown
  1.2s|     1 |     0 |   816 |     - |    55M |   0 | 421 |  10k|  10k|  29 |  5 |   0 |   0 | 8.495294e+04 | 8.493368e+04 |   0.02%| unknown
  1.4s|     1 |     0 |   884 |     - |    57M |   0 | 421 |  10k|  10k|  33 |  6 |   0 |   0 | 8.495244e+04 | 8.493368e+04 |   0.02%| unknown
  1.8s|     1 |     0 |   931 |     - |    58M |   0 | 421 |  10k|  10k|  37 |  7 |   0 |   0 | 8.495197e+04 | 8.493368e+04 |   0.02%| unknown
  2.1s|     1 |     0 |   994 |     - |    59M |   0 | 421 |  10k|  10k|  44 |  8 |   0 |   0 | 8.495170e+04 | 8.493368e+04 |   0.02%| unknown
  2.4s|     1 |     0 |  1074 |     - |    61M |   0 | 421 |  10k|  10k|  48 |  9 |   0 |   0 | 8.495133e+04 | 8.493368e+04 |   0.02%| unknown
 time | node  | left  |LP iter|LP it/n|mem/heur|mdpt |vars |cons |rows |cuts |sepa|confs|strbr|  dualbound   | primalbound  |  gap   | compl. 
  2.8s|     1 |     0 |  1116 |     - |    62M |   0 | 421 |  10k|  10k|  53 | 10 |   0 |   0 | 8.495114e+04 | 8.493368e+04 |   0.02%| unknown
  2.8s|     1 |     0 |  1164 |     - |    63M |   0 | 421 |  10k|  10k|  58 | 11 |   0 |   0 | 8.495103e+04 | 8.493368e+04 |   0.02%| unknown
  2.8s|     1 |     0 |  1212 |     - |    64M |   0 | 421 |  10k|  10k|  65 | 12 |   0 |   0 | 8.495094e+04 | 8.493368e+04 |   0.02%| unknown
  2.8s|     1 |     0 |  1263 |     - |    65M |   0 | 421 |  10k|  10k|  70 | 13 |   0 |   0 | 8.495086e+04 | 8.493368e+04 |   0.02%| unknown
  2.8s|     1 |     0 |  1296 |     - |    66M |   0 | 421 |  10k|  10k|  72 | 14 |   0 |   0 | 8.495079e+04 | 8.493368e+04 |   0.02%| unknown
  2.9s|     1 |     0 |  1359 |     - |    67M |   0 | 421 |  10k|  10k|  79 | 15 |   0 |   0 | 8.495056e+04 | 8.493368e+04 |   0.02%| unknown
  2.9s|     1 |     0 |  1390 |     - |    68M |   0 | 421 |  10k|  10k|  83 | 16 |   0 |   0 | 8.495053e+04 | 8.493368e+04 |   0.02%| unknown
  2.9s|     1 |     0 |  1456 |     - |    70M |   0 | 421 |  10k|  10k|  89 | 17 |   0 |   0 | 8.495033e+04 | 8.493368e+04 |   0.02%| unknown
  2.9s|     1 |     0 |  1524 |     - |    71M |   0 | 421 |  10k|  10k|  95 | 18 |   0 |   0 | 8.495021e+04 | 8.493368e+04 |   0.02%| unknown
  3.0s|     1 |     0 |  1559 |     - |    72M |   0 | 421 |  10k|  10k|  98 | 19 |   0 |   0 | 8.495015e+04 | 8.493368e+04 |   0.02%| unknown
  3.0s|     1 |     0 |  1599 |     - |    73M |   0 | 421 |  10k|  10k| 103 | 20 |   0 |   0 | 8.495009e+04 | 8.493368e+04 |   0.02%| unknown
  3.0s|     1 |     0 |  1613 |     - |    73M |   0 | 421 |  10k|  10k| 104 | 21 |   0 |   0 | 8.495008e+04 | 8.493368e+04 |   0.02%| unknown
  3.0s|     1 |     0 |  1642 |     - |    73M |   0 | 421 |  10k|  10k| 107 | 22 |   0 |   0 | 8.495006e+04 | 8.493368e+04 |   0.02%| unknown
  3.0s|     1 |     0 |  1677 |     - |    73M |   0 | 421 |  10k|  10k| 111 | 23 |   0 |   0 | 8.495003e+04 | 8.493368e+04 |   0.02%| unknown
  3.1s|     1 |     0 |  1702 |     - |    73M |   0 | 421 |  10k|  10k| 113 | 24 |   0 |   0 | 8.495001e+04 | 8.493368e+04 |   0.02%| unknown
 time | node  | left  |LP iter|LP it/n|mem/heur|mdpt |vars |cons |rows |cuts |sepa|confs|strbr|  dualbound   | primalbound  |  gap   | compl. 
  3.1s|     1 |     0 |  1734 |     - |    73M |   0 | 421 |  10k|  10k| 115 | 25 |   0 |   0 | 8.494999e+04 | 8.493368e+04 |   0.02%| unknown
  3.1s|     1 |     0 |  1764 |     - |    73M |   0 | 421 |  10k|  10k| 123 | 26 |   0 |   0 | 8.494996e+04 | 8.493368e+04 |   0.02%| unknown
  3.1s|     1 |     0 |  1790 |     - |    73M |   0 | 421 |  10k|  10k| 126 | 27 |   0 |   0 | 8.494994e+04 | 8.493368e+04 |   0.02%| unknown
  3.1s|     1 |     0 |  1811 |     - |    73M |   0 | 421 |  10k|  10k| 127 | 28 |   0 |   0 | 8.494993e+04 | 8.493368e+04 |   0.02%| unknown
  3.1s|     1 |     0 |  1830 |     - |    73M |   0 | 421 |  10k|  10k| 130 | 29 |   0 |   0 | 8.494992e+04 | 8.493368e+04 |   0.02%| unknown
  3.2s|     1 |     0 |  1851 |     - |    73M |   0 | 421 |  10k|  10k| 134 | 30 |   0 |   0 | 8.494991e+04 | 8.493368e+04 |   0.02%| unknown
  3.2s|     1 |     0 |  1866 |     - |    73M |   0 | 421 |  10k|  10k| 139 | 31 |   0 |   0 | 8.494991e+04 | 8.493368e+04 |   0.02%| unknown
  3.2s|     1 |     0 |  1871 |     - |    74M |   0 | 421 |  10k|  10k| 141 | 32 |   0 |   0 | 8.494991e+04 | 8.493368e+04 |   0.02%| unknown
  3.2s|     1 |     0 |  1885 |     - |    74M |   0 | 421 |  10k|  10k| 143 | 33 |   0 |   0 | 8.494990e+04 | 8.493368e+04 |   0.02%| unknown
  3.2s|     1 |     0 |  1896 |     - |    74M |   0 | 421 |  10k|  10k| 144 | 34 |   0 |   0 | 8.494990e+04 | 8.493368e+04 |   0.02%| unknown
d 3.3s|     1 |     0 |  2638 |     - |farkasdi|   0 | 421 |  10k|  10k|   0 | 36 |   0 |   0 | 8.494990e+04 | 8.494082e+04 |   0.01%| unknown
d 3.6s|     1 |     0 |  3409 |     - |conflict|   0 | 421 |  10k|  10k|   0 | 36 |   3 |   0 | 8.494990e+04 | 8.494083e+04 |   0.01%| unknown
d 3.6s|     1 |     0 |  3420 |     - |conflict|   0 | 421 |  10k|  10k|   0 | 36 |   3 |   0 | 8.494990e+04 | 8.494174e+04 |   0.01%| unknown
d 3.6s|     1 |     0 |  3438 |     - |conflict|   0 | 421 |  10k|  10k|   0 | 36 |   3 |   0 | 8.494990e+04 | 8.494177e+04 |   0.01%| unknown
d 3.6s|     1 |     0 |  3450 |     - |conflict|   0 | 421 |  10k|  10k|   0 | 36 |   3 |   0 | 8.494990e+04 | 8.494180e+04 |   0.01%| unknown
 time | node  | left  |LP iter|LP it/n|mem/heur|mdpt |vars |cons |rows |cuts |sepa|confs|strbr|  dualbound   | primalbound  |  gap   | compl. 
L 5.3s|     1 |     0 |  3455 |     - |    rens|   0 | 421 |  10k|  10k| 144 | 36 |   4 |   0 | 8.494990e+04 | 8.494519e+04 |   0.01%| unknown
  5.3s|     1 |     0 |  3455 |     - |    75M |   0 | 421 |  10k|  10k| 144 | 36 |   4 |   0 | 8.494990e+04 | 8.494519e+04 |   0.01%| unknown
  5.3s|     1 |     0 |  3456 |     - |    75M |   0 | 421 |  10k|  10k| 145 | 37 |   4 |   0 | 8.494990e+04 | 8.494519e+04 |   0.01%| unknown
  6.8s|     1 |     2 |  3456 |     - |    75M |   0 | 421 |  10k|  10k| 145 | 38 |   4 |  35 | 8.494953e+04 | 8.494519e+04 |   0.01%| unknown
L14.6s|    45 |     5 |  5874 |  90.4 |    alns|  20 | 421 |  10k|  10k| 154 |  4 |  46 | 538 | 8.494932e+04 | 8.494596e+04 |   0.00%|  12.48%
L14.6s|    45 |     5 |  5874 |  90.4 |    alns|  20 | 421 |  10k|  10k| 154 |  4 |  46 | 538 | 8.494932e+04 | 8.494602e+04 |   0.00%|  12.48%
L14.6s|    45 |     5 |  5874 |  90.4 |    alns|  20 | 421 |  10k|  10k| 154 |  4 |  46 | 538 | 8.494932e+04 | 8.494604e+04 |   0.00%|  12.48%
r19.9s|    91 |    11 |  7685 |  64.3 |ziroundi|  20 | 421 |  10k|  10k| 171 |  1 |  70 | 661 | 8.494932e+04 | 8.494632e+04 |   0.00%|  29.81%
 20.0s|   100 |     8 |  7816 |  59.8 |    91M |  20 | 421 |  10k|  10k| 171 |  0 |  71 | 673 | 8.494932e+04 | 8.494632e+04 |   0.00%|  29.85%
r21.7s|   136 |    12 |  9402 |  55.6 |rounding|  20 | 421 |  10k|  10k| 173 |  3 |  92 | 784 | 8.494906e+04 | 8.494636e+04 |   0.00%|  38.54%
r21.8s|   147 |     8 |  9731 |  53.7 |simplero|  20 | 421 |  10k|  10k| 173 |  0 |  94 | 794 | 8.494906e+04 | 8.494689e+04 |   0.00%|  39.86%
 22.5s|   200 |    15 | 10680 |  44.1 |    93M |  26 | 421 |  10k|  10k| 174 |  0 | 106 | 846 | 8.494874e+04 | 8.494689e+04 |   0.00%|  43.61%
 31.1s|   300 |     7 | 15898 |  46.8 |   106M |  26 | 421 |  10k|  10k| 232 |  2 | 195 |1054 | 8.494784e+04 | 8.494689e+04 |   0.00%|  86.30%

SCIP Status        : problem is solved [optimal solution found]
Solving Time (sec) : 31.70
Solving Nodes      : 359
Primal Bound       : +8.49468926510151e+04 (500 solutions)
Dual Bound         : +8.49468926510151e+04
Gap                : 0.00 %
Solve Status: optimal
Solve Time: 31.70 seconds
